100
9 29
27 36
6 57
12 64
1 81
2 88
26 17
23 26
13 70
20 40
28 99
15 93
26 12
1 34
14 59
18 49
15 46
13 65
9 83
15 77
17 22
9 19
15 43
3 14
4 18
29 33
27 15
19 74
8 65
14 10
19 35
1 65
2 96
2 36
23 64
6 97
26 30
23 78
2 13
23 86
11 99
16 52
29 50
8 45
17 39
14 92
9 18
16 7
5 92
8 98
27 8
0 94
14 63
18 15
3 69
0 11
26 77
7 86
13 95
24 95
0 42
20 61
8 1
5 78
17 64
4 53
20 24
0 67
12 24
5 68
22 88
15 65
21 48
13 92
0 86
18 77
0 32
23 40
21 59
15 79
12 0
6 51
8 84
29 16
17 53
21 54
10 69
27 6
20 23
12 12
1 90
12 42
15 32
3 56
27 6
6 18
29 19
4 82
11 40
13 65
